20
135
5
65
88
75
46
69
0 1
0 2
0 3
0 4
0 5
0 7
0 9
0 11
0 12
0 13
0 15
0 16
0 17
0 18
0 19
1 2
1 8
1 9
1 13
1 14
1 15
1 16
1 17
1 18
2 3
2 4
2 5
2 6
2 7
2 8
2 9
2 10
2 11
2 12
2 13
2 15
2 16
2 18
2 19
3 4
3 5
3 6
3 9
3 11
3 14
3 16
3 18
3 19
4 6
4 7
4 10
4 11
4 12
4 13
4 15
4 18
4 19
5 6
5 7
5 9
5 10
5 11
5 12
5 13
5 14
5 16
5 17
5 18
5 19
6 7
6 8
6 9
6 10
6 11
6 13
6 15
6 16
6 18
6 19
7 9
7 11
7 12
7 13
7 14
7 15
7 16
7 17
7 18
7 19
8 9
8 10
8 12
8 13
8 14
8 15
8 17
8 19
9 10
9 11
9 13
9 14
9 15
9 17
10 11
10 12
10 14
10 15
10 16
10 19
11 12
11 13
11 14
11 16
11 17
11 19
12 13
12 14
12 15
13 14
13 15
13 16
13 19
14 15
14 16
14 17
14 18
14 19
15 16
15 17
15 18
16 17
16 18
16 19
17 19
18 19
15 8 0 9
7 18 16 17
10 3 6 4
12 11 13 19
2 1 14 5
